proyfinal/src/viki/013/experimentInOfficeAgust.take6.output/68f3eeb8-134f-4a36-bad5-00efe1f23c79.als.dat
{'cnf.clauses': '118081',
 'cnf.totvars': '69608',
 'conflict literals': '9',
 'conflicts': '6',
 'decisions': '2830',
 'memused.mb': '16.54',
 'outcome': 'UNSAT',
 'propagations': '22997',
 'restarts': '1',
 'solver.msecs': 30,
 'task.msecs': 84}
