proyfinal/src/viki/013/experimentInOfficeAgust.take6.output/68f3eeb8-134f-4a36-bad5-00efe1f23c79.als.out
Reading from standard input... Use '--help' for help.
============================[ Problem Statistics ]=============================
|                                                                             |
|  Number of variables:         69608                                         |
|  Number of clauses:          118081                                         |
|  Parse time:                   0.02 s                                       |
|                                                                             |
============================[ Search Statistics ]==============================
| Conflicts |          ORIGINAL         |          LEARNT          | Progress |
|           |    Vars  Clauses Literals |    Limit  Clauses Lit/Cl |          |
===============================================================================
===============================================================================
restarts              : 1
conflicts             : 6              (196 /sec)
decisions             : 2830           (0.00 % random) (92215 /sec)
propagations          : 22997          (749356 /sec)
conflict literals     : 9              (0.00 % deleted)
Memory used           : 16.54 MB
CPU time              : 0.030689 s

UNSATISFIABLE
